131
1000
352
174
396
11
41
147
225
452
197
300
182
239
114
79
85
369
328
353
110
155
184
7
321
424
128
235
164
312
67
116
391
301
295
496
472
301
85
91
124
33
374
166
281
129
99
80
341
379
70
43
142
428
311
105
102
209
386
69
224
41
373
140
289
29
358
363
27
424
451
194
482
372
252
446
415
455
360
84
181
158
451
420
319
212
160
384
54
145
499
43
268
492
117
30
364
451
193
120
127
175
17
242
46
42
147
195
4
74
354
455
226
438
475
78
326
143
185
257
458
258
1
129
244
99
298
209
125
8
206
160
389
